[2026-03-24T00:37:05.272Z] Pipeline "set_prova_set_prova_set_s002_g001" → 2026_03_24_00_37_05_set_prova_set_prova_set_s002_g001_max.sol
Set parameter WLSAccessID
Set parameter WLSSecret
Set parameter LicenseID to value 2792458
Set parameter LogFile to value "gurobi.log"
Using license file /root/gurobi.lic
Academic license 2792458 - for non-commercial use only - registered to an___@studenti.unipg.it

Gurobi Optimizer version 13.0.1 build v13.0.1rc0 (linux64 - "Ubuntu 24.04.4 LTS")
Copyright (c) 2026, Gurobi Optimization, LLC

Warning: Duplicate section found (read 'binary') - Is a variable name equal to an LP file format keyword?
Warning: Duplicate section found (read 'binary') - Is a variable name equal to an LP file format keyword?
Warning: Duplicate section found (read 'binary') - Is a variable name equal to an LP file format keyword?
Warning: Duplicate section found (read 'binary') - Is a variable name equal to an LP file format keyword?
Warning: Duplicate section found (read 'binary') - Is a variable name equal to an LP file format keyword?
Warning: Duplicate section found (read 'binary') - Is a variable name equal to an LP file format keyword?
Warning: Duplicate section found (read 'binary') - Is a variable name equal to an LP file format keyword?
Warning: Duplicate section found (read 'binary') - Is a variable name equal to an LP file format keyword?
Warning: Duplicate section found (read 'binary') - Is a variable name equal to an LP file format keyword?
Warning: Duplicate section found (read 'binary') - Is a variable name equal to an LP file format keyword?
Warning: Further warnings of this type will be omitted.
Read LP format model from file /root/bgw/data/uploads/2026_03_24_00_37_05_set_prova_set_prova_set_s002_g001_max.lp
Reading time = 0.00 seconds
: 2942 rows, 331 columns, 8591 nonzeros

Using Gurobi shared library /opt/gurobi1301/linux64/lib/libgurobi.so.13.0.1

CPU model: AMD EPYC-Genoa Processor, instruction set [SSE2|AVX|AVX2|AVX512]
Thread count: 16 physical cores, 16 logical processors, using up to 16 threads

Academic license 2792458 - for non-commercial use only - registered to an___@studenti.unipg.it
Optimize a model with 2942 rows, 331 columns and 8591 nonzeros (Max)
Model fingerprint: 0x8985328d
Model has 26 linear objective coefficients
Variable types: 46 continuous, 285 integer (285 binary)
Coefficient statistics:
  Matrix range     [1e+00, 2e+01]
  Objective range  [1e+00, 1e+00]
  Bounds range     [1e+00, 1e+00]
  RHS range        [1e+00, 2e+01]

Found heuristic solution: objective 26.0000000
Presolve removed 591 rows and 99 columns
Presolve time: 0.01s
Presolved: 2351 rows, 232 columns, 7274 nonzeros
Variable types: 0 continuous, 232 integer (219 binary)
Found heuristic solution: objective 31.0000000

Root relaxation: objective 1.190000e+02, 451 iterations, 0.02 seconds (0.03 work units)

    Nodes    |    Current Node    |     Objective Bounds      |     Work
 Expl Unexpl |  Obj  Depth IntInf | Incumbent    BestBd   Gap | It/Node Time

     0     0  119.00000    0   89   31.00000  119.00000   284%     -    0s
H    0     0                      37.0000000  119.00000   222%     -    0s
H    0     0                      48.0000000  119.00000   148%     -    0s
H    0     0                      53.0000000  119.00000   125%     -    0s
H    0     0                      54.0000000  119.00000   120%     -    0s
     0     0  119.00000    0   89   54.00000  119.00000   120%     -    0s
H    0     0                      55.0000000  119.00000   116%     -    0s
H    0     0                      57.0000000  119.00000   109%     -    0s
     0     0  119.00000    0   88   57.00000  119.00000   109%     -    0s
     0     0  119.00000    0   88   57.00000  119.00000   109%     -    0s
     0     0  119.00000    0   88   57.00000  119.00000   109%     -    0s
     0     0  119.00000    0   87   57.00000  119.00000   109%     -    0s
     0     0  119.00000    0   81   57.00000  119.00000   109%     -    0s
     0     0  119.00000    0   88   57.00000  119.00000   109%     -    0s
     0     0  119.00000    0   85   57.00000  119.00000   109%     -    0s
H    0     0                      59.0000000  119.00000   102%     -    0s
H    0     0                      60.0000000  119.00000  98.3%     -    0s
     0     0  119.00000    0   85   60.00000  119.00000  98.3%     -    0s
     0     0  119.00000    0   85   60.00000  119.00000  98.3%     -    0s
     0     0  119.00000    0   86   60.00000  119.00000  98.3%     -    0s
     0     0  119.00000    0   85   60.00000  119.00000  98.3%     -    0s
     0     0  119.00000    0   85   60.00000  119.00000  98.3%     -    0s
     0     0  119.00000    0   82   60.00000  119.00000  98.3%     -    0s
     0     2  119.00000    0   82   60.00000  119.00000  98.3%     -    0s
H  116   110                      64.0000000  119.00000  85.9%   108    0s
H  235   206                      65.0000000  119.00000  83.1%  97.6    0s
H 3185  1782                      66.0000000  118.00000  78.8%  85.5    2s
  6386  2409   69.40000   43   67   66.00000  113.51468  72.0%  81.7    5s
 29327 10071   81.61111   37   73   66.00000  100.45833  52.2%  75.1   10s
 48698 16004   72.38889   36   46   66.00000   96.83333  46.7%  75.1   15s
 69393 21283 infeasible   41        66.00000   94.20370  42.7%  75.5   20s
 94958 27045   83.07407   37   84   66.00000   91.66667  38.9%  76.6   25s
 119718 31521 infeasible   36        66.00000   89.83333  36.1%  77.4   30s
 144473 35097   71.71429   37   86   66.00000   88.22417  33.7%  77.7   35s
*159658 36991              55      67.0000000   87.52778  30.6%  78.5   38s
 165997 37483   76.87302   40   64   67.00000   87.27778  30.3%  78.7   40s
 189288 38989     cutoff   35        67.00000   86.00000  28.4%  79.2   45s
 192478 38659 infeasible   47        67.00000   85.83333  28.1%  79.2   50s
 224631 39873   69.00000   46   12   67.00000   84.74074  26.5%  80.3   55s
 241137 40276   73.74074   37   50   67.00000   84.16667  25.6%  80.8   60s
 262958 40184   71.58333   38   51   67.00000   83.22222  24.2%  80.9   65s
 284981 39697 infeasible   39        67.00000   82.04167  22.5%  81.1   70s
 306660 39767   69.19444   40   62   67.00000   81.63272  21.8%  81.7   75s
 329315 38282 infeasible   43        67.00000   80.80556  20.6%  81.6   80s
 350030 36573 infeasible   38        67.00000   79.87778  19.2%  81.6   85s
 372994 34655   78.30556   38   60   67.00000   79.00000  17.9%  81.9   90s
 392436 32518     cutoff   39        67.00000   78.58333  17.3%  82.3   95s
 414293 29100     cutoff   40        67.00000   77.67874  15.9%  82.3  100s
 436775 25605     cutoff   40        67.00000   76.69608  14.5%  82.6  105s
 456184 21542 infeasible   45        67.00000   75.88889  13.3%  82.9  110s
 479301 16076   68.00000   46   37   67.00000   74.52381  11.2%  83.2  115s
 495575 10869 infeasible   45        67.00000   73.42593  9.59%  83.2  120s

Cutting planes:
  Inf proof: 3

Explored 519720 nodes (43078267 simplex iterations) in 124.66 seconds (270.16 work units)
Thread count was 16 (of 16 available processors)

Solution count 10: 67 66 66 ... 57

Optimal solution found (tolerance 1.00e-04)
Best objective 6.700000000000e+01, best bound 6.700000000000e+01, gap 0.0000%

Wrote result file '/root/bgw/data/results/2026_03_24_00_37_05_set_prova_set_prova_set_s002_g001_max.sol'

